Version identifier: 22.1.0.0 | 2022-03-09 | 1a383f8ce
CPXPARAM_Read_DataCheck                          1
1 of 1 MIP starts provided solutions.
MIP start 'm1' defined initial solution with objective 22.0000.
Tried aggregator 3 times.
MIP Presolve eliminated 5328 rows and 1108 columns.
MIP Presolve modified 135 coefficients.
Aggregator did 4392 substitutions.
Reduced MIP has 1165 rows, 4664 columns, and 10477 nonzeros.
Reduced MIP has 4650 binaries, 14 generals, 0 SOSs, and 0 indicators.
Presolve time = 0.03 sec. (33.95 ticks)
Probing fixed 22 vars, tightened 0 bounds.
Probing changed sense of 3 constraints.
Probing time = 0.01 sec. (1.58 ticks)
Tried aggregator 2 times.
Detecting symmetries...
MIP Presolve eliminated 22 rows and 29 columns.
Aggregator did 8 substitutions.
Reduced MIP has 1135 rows, 4627 columns, and 10352 nonzeros.
Reduced MIP has 4613 binaries, 14 generals, 0 SOSs, and 0 indicators.
Presolve time = 0.01 sec. (10.50 ticks)
Probing fixed 3 vars, tightened 0 bounds.
Probing time = 0.01 sec. (1.71 ticks)
Clique table members: 9665.
MIP emphasis: balance optimality and feasibility.
MIP search method: dynamic search.
Parallel mode: deterministic, using up to 8 threads.
Root relaxation solution time = 0.04 sec. (28.81 ticks)

        Nodes                                         Cuts/
   Node  Left     Objective  IInf  Best Integer    Best Bound    ItCnt     Gap

*     0+    0                           22.0000        0.0000           100.00%
      0     0       14.4105   836       22.0000       14.4105      993   34.50%
      0     0        cutoff             22.0000                   1000    0.00%
Elapsed time = 0.29 sec. (190.17 ticks, tree = 0.01 MB, solutions = 1)

Zero-half cuts applied:  58
Gomory fractional cuts applied:  15

Root node processing (before b&c):
  Real time             =    0.29 sec. (190.53 ticks)
Parallel b&c, 8 threads:
  Real time             =    0.00 sec. (0.00 ticks)
  Sync time (average)   =    0.00 sec.
  Wait time (average)   =    0.00 sec.
                          ------------
Total (root+branch&cut) =    0.29 sec. (190.53 ticks)
